60
1 0 80
2 0 25
2 1 6
3 0 83
3 1 4
3 2 9
4 0 42
4 1 107
4 2 71
4 3 87
5 0 91
5 1 64
5 2 25
5 3 7
5 4 70
6 0 96
6 1 34
6 2 98
6 3 71
6 4 5
6 5 26
7 0 37
7 1 71
7 2 76
7 3 81
7 4 63
7 5 26
7 6 28
8 0 114
8 1 119
8 2 119
8 3 26
8 4 5
8 5 63
8 6 97
8 7 27
9 0 7
9 1 77
9 2 20
9 3 15
9 4 30
9 5 46
9 6 111
9 7 89
9 8 93
10 0 90
10 1 65
10 2 37
10 3 99
10 4 5
10 5 94
10 6 45
10 7 111
10 8 94
10 9 74
11 0 81
11 1 51
11 2 119
11 3 75
11 4 23
11 5 60
11 6 12
11 7 28
11 8 42
11 9 26
11 10 75
12 0 68
12 1 24
12 2 52
12 3 52
12 4 79
12 5 113
12 6 78
12 7 41
12 8 58
12 9 15
12 10 2
12 11 25
13 0 107
13 1 54
13 2 15
13 3 103
13 4 53
13 5 120
13 6 48
13 7 52
13 8 93
13 9 27
13 10 3
13 11 20
13 12 7
14 0 18
14 1 102
14 2 54
14 3 46
14 4 62
14 5 84
14 6 96
14 7 61
14 8 111
14 9 3
14 10 24
14 11 14
14 12 11
14 13 94
15 0 84
15 1 53
15 2 100
15 3 1
15 4 52
15 5 17
15 6 53
15 7 57
15 8 42
15 9 60
15 10 57
15 11 47
15 12 43
15 13 68
15 14 15
16 0 13
16 1 76
16 2 91
16 3 98
16 4 10
16 5 35
16 6 106
16 7 69
16 8 92
16 9 98
16 10 98
16 11 35
16 12 22
16 13 85
16 14 22
16 15 10
17 0 17
17 1 44
17 2 94
17 3 27
17 4 69
17 5 33
17 6 77
17 7 45
17 8 44
17 9 98
17 10 104
17 11 17
17 12 74
17 13 43
17 14 93
17 15 21
17 16 31
18 0 58
18 1 111
18 2 36
18 3 59
18 4 56
18 5 116
18 6 52
18 7 47
18 8 39
18 9 70
18 10 24
18 11 84
18 12 19
18 13 94
18 14 75
18 15 75
18 16 59
18 17 44
19 0 33
19 1 23
19 2 107
19 3 57
19 4 73
19 5 57
19 6 13
19 7 35
19 8 66
19 9 79
19 10 44
19 11 49
19 12 66
19 13 112
19 14 93
19 15 67
19 16 63
19 17 56
19 18 94
20 0 67
20 1 60
20 2 17
20 3 30
20 4 85
20 5 114
20 6 83
20 7 70
20 8 118
20 9 118
20 10 56
20 11 103
20 12 100
20 13 113
20 14 107
20 15 16
20 16 47
20 17 21
20 18 58
20 19 10
21 0 35
21 1 104
21 2 109
21 3 106
21 4 71
21 5 27
21 6 42
21 7 106
21 8 49
21 9 72
21 10 50
21 11 56
21 12 21
21 13 9
21 14 8
21 15 27
21 16 94
21 17 81
21 18 65
21 19 32
21 20 114
22 0 50
22 1 14
22 2 38
22 3 63
22 4 74
22 5 22
22 6 111
22 7 80
22 8 28
22 9 7
22 10 120
22 11 5
22 12 31
22 13 52
22 14 39
22 15 61
22 16 44
22 17 52
22 18 114
22 19 106
22 20 35
22 21 79
23 0 63
23 1 103
23 2 88
23 3 78
23 4 118
23 5 7
23 6 84
23 7 89
23 8 17
23 9 100
23 10 72
23 11 21
23 12 16
23 13 44
23 14 60
23 15 112
23 16 86
23 17 6
23 18 48
23 19 85
23 20 109
23 21 36
23 22 40
24 0 108
24 1 58
24 2 29
24 3 86
24 4 82
24 5 30
24 6 111
24 7 42
24 8 42
24 9 21
24 10 5
24 11 91
24 12 81
24 13 89
24 14 33
24 15 119
24 16 103
24 17 24
24 18 79
24 19 117
24 20 33
24 21 55
24 22 95
24 23 4
25 0 37
25 1 102
25 2 80
25 3 27
25 4 87
25 5 8
25 6 36
25 7 62
25 8 60
25 9 108
25 10 89
25 11 7
25 12 9
25 13 77
25 14 111
25 15 118
25 16 45
25 17 30
25 18 61
25 19 66
25 20 19
25 21 79
25 22 75
25 23 64
25 24 49
26 0 107
26 1 31
26 2 26
26 3 119
26 4 83
26 5 79
26 6 32
26 7 76
26 8 119
26 9 109
26 10 64
26 11 7
26 12 44
26 13 80
26 14 56
26 15 97
26 16 36
26 17 84
26 18 66
26 19 1
26 20 113
26 21 80
26 22 26
26 23 30
26 24 71
26 25 27
27 0 119
27 1 26
27 2 23
27 3 76
27 4 93
27 5 94
27 6 64
27 7 20
27 8 72
27 9 90
27 10 110
27 11 14
27 12 38
27 13 41
27 14 62
27 15 40
27 16 109
27 17 30
27 18 83
27 19 37
27 20 59
27 21 89
27 22 114
27 23 56
27 24 22
27 25 22
27 26 40
28 0 20
28 1 40
28 2 6
28 3 57
28 4 40
28 5 110
28 6 3
28 7 65
28 8 10
28 9 117
28 10 16
28 11 88
28 12 63
28 13 52
28 14 89
28 15 35
28 16 67
28 17 87
28 18 104
28 19 115
28 20 72
28 21 2
28 22 37
28 23 47
28 24 40
28 25 112
28 26 51
28 27 14
29 0 115
29 1 20
29 2 62
29 3 94
29 4 76
29 5 31
29 6 33
29 7 1
29 8 119
29 9 56
29 10 82
29 11 2
29 12 108
29 13 81
29 14 35
29 15 92
29 16 119
29 17 53
29 18 99
29 19 52
29 20 58
29 21 108
29 22 63
29 23 40
29 24 43
29 25 8
29 26 80
29 27 74
29 28 115
30 0 73
30 1 14
30 2 55
30 3 66
30 4 43
30 5 2
30 6 55
30 7 45
30 8 116
30 9 96
30 10 63
30 11 36
30 12 62
30 13 17
30 14 57
30 15 7
30 16 5
30 17 80
30 18 120
30 19 77
30 20 21
30 21 52
30 22 107
30 23 54
30 24 60
30 25 57
30 26 78
30 27 18
30 28 24
30 29 2
31 0 94
31 1 50
31 2 20
31 3 13
31 4 48
31 5 118
31 6 74
31 7 90
31 8 11
31 9 78
31 10 109
31 11 92
31 12 2
31 13 26
31 14 10
31 15 12
31 16 88
31 17 61
31 18 40
31 19 21
31 20 35
31 21 105
31 22 53
31 23 56
31 24 55
31 25 111
31 26 102
31 27 67
31 28 27
31 29 38
31 30 110
32 0 34
32 1 111
32 2 102
32 3 65
32 4 79
32 5 71
32 6 37
32 7 33
32 8 83
32 9 52
32 10 77
32 11 46
32 12 57
32 13 59
32 14 56
32 15 85
32 16 111
32 17 111
32 18 8
32 19 30
32 20 14
32 21 50
32 22 41
32 23 82
32 24 24
32 25 81
32 26 32
32 27 41
32 28 31
32 29 18
32 30 110
32 31 51
33 0 60
33 1 19
33 2 27
33 3 41
33 4 101
33 5 31
33 6 89
33 7 59
33 8 81
33 9 75
33 10 38
33 11 117
33 12 37
33 13 55
33 14 49
33 15 109
33 16 63
33 17 116
33 18 40
33 19 48
33 20 10
33 21 51
33 22 98
33 23 46
33 24 28
33 25 20
33 26 65
33 27 102
33 28 70
33 29 79
33 30 76
33 31 14
33 32 84
34 0 4
34 1 28
34 2 28
34 3 60
34 4 80
34 5 70
34 6 83
34 7 30
34 8 77
34 9 42
34 10 115
34 11 75
34 12 30
34 13 1
34 14 65
34 15 36
34 16 112
34 17 70
34 18 76
34 19 107
34 20 15
34 21 14
34 22 60
34 23 40
34 24 9
34 25 60
34 26 15
34 27 117
34 28 67
34 29 78
34 30 112
34 31 102
34 32 120
34 33 26
35 0 47
35 1 17
35 2 58
35 3 20
35 4 114
35 5 77
35 6 78
35 7 5
35 8 80
35 9 82
35 10 60
35 11 81
35 12 27
35 13 2
35 14 54
35 15 82
35 16 63
35 17 56
35 18 48
35 19 4
35 20 101
35 21 46
35 22 55
35 23 56
35 24 27
35 25 26
35 26 76
35 27 73
35 28 93
35 29 90
35 30 89
35 31 6
35 32 103
35 33 101
35 34 22
36 0 84
36 1 51
36 2 74
36 3 55
36 4 22
36 5 114
36 6 61
36 7 57
36 8 26
36 9 91
36 10 86
36 11 17
36 12 118
36 13 87
36 14 91
36 15 82
36 16 23
36 17 60
36 18 31
36 19 85
36 20 25
36 21 105
36 22 40
36 23 3
36 24 55
36 25 111
36 26 112
36 27 77
36 28 6
36 29 1
36 30 18
36 31 60
36 32 25
36 33 88
36 34 48
36 35 106
37 0 4
37 1 65
37 2 103
37 3 68
37 4 88
37 5 61
37 6 79
37 7 120
37 8 32
37 9 46
37 10 76
37 11 41
37 12 119
37 13 28
37 14 93
37 15 115
37 16 107
37 17 110
37 18 63
37 19 83
37 20 48
37 21 52
37 22 68
37 23 19
37 24 109
37 25 105
37 26 118
37 27 93
37 28 53
37 29 45
37 30 72
37 31 25
37 32 17
37 33 60
37 34 10
37 35 74
37 36 61
38 0 97
38 1 19
38 2 97
38 3 71
38 4 68
38 5 97
38 6 8
38 7 61
38 8 105
38 9 67
38 10 55
38 11 116
38 12 86
38 13 2
38 14 89
38 15 95
38 16 66
38 17 46
38 18 31
38 19 68
38 20 76
38 21 68
38 22 49
38 23 94
38 24 16
38 25 11
38 26 64
38 27 37
38 28 68
38 29 6
38 30 46
38 31 112
38 32 48
38 33 67
38 34 65
38 35 31
38 36 76
38 37 87
39 0 36
39 1 48
39 2 92
39 3 114
39 4 2
39 5 8
39 6 62
39 7 4
39 8 108
39 9 4
39 10 11
39 11 65
39 12 94
39 13 14
39 14 116
39 15 35
39 16 30
39 17 15
39 18 59
39 19 112
39 20 25
39 21 60
39 22 75
39 23 4
39 24 110
39 25 48
39 26 97
39 27 13
39 28 93
39 29 78
39 30 83
39 31 57
39 32 77
39 33 94
39 34 16
39 35 113
39 36 47
39 37 112
39 38 111
40 0 78
40 1 109
40 2 59
40 3 106
40 4 72
40 5 106
40 6 90
40 7 58
40 8 81
40 9 118
40 10 98
40 11 2
40 12 31
40 13 31
40 14 83
40 15 8
40 16 77
40 17 116
40 18 26
40 19 91
40 20 102
40 21 12
40 22 26
40 23 113
40 24 84
40 25 29
40 26 24
40 27 60
40 28 8
40 29 84
40 30 35
40 31 28
40 32 88
40 33 106
40 34 48
40 35 20
40 36 41
40 37 51
40 38 75
40 39 12
41 0 27
41 1 68
41 2 64
41 3 96
41 4 26
41 5 89
41 6 103
41 7 27
41 8 87
41 9 48
41 10 63
41 11 71
41 12 69
41 13 59
41 14 39
41 15 18
41 16 61
41 17 25
41 18 54
41 19 11
41 20 35
41 21 98
41 22 96
41 23 108
41 24 99
41 25 94
41 26 91
41 27 116
41 28 91
41 29 46
41 30 95
41 31 59
41 32 43
41 33 76
41 34 25
41 35 99
41 36 101
41 37 25
41 38 95
41 39 92
41 40 31
42 0 72
42 1 20
42 2 76
42 3 82
42 4 93
42 5 20
42 6 119
42 7 43
42 8 3
42 9 69
42 10 32
42 11 113
42 12 97
42 13 110
42 14 108
42 15 8
42 16 94
42 17 30
42 18 65
42 19 108
42 20 32
42 21 10
42 22 57
42 23 38
42 24 104
42 25 112
42 26 47
42 27 116
42 28 8
42 29 12
42 30 10
42 31 31
42 32 106
42 33 77
42 34 80
42 35 12
42 36 119
42 37 84
42 38 60
42 39 120
42 40 114
42 41 83
43 0 108
43 1 73
43 2 34
43 3 99
43 4 20
43 5 11
43 6 80
43 7 17
43 8 91
43 9 96
43 10 59
43 11 5
43 12 46
43 13 8
43 14 54
43 15 103
43 16 66
43 17 18
43 18 1
43 19 4
43 20 89
43 21 84
43 22 105
43 23 115
43 24 31
43 25 26
43 26 97
43 27 64
43 28 55
43 29 41
43 30 51
43 31 114
43 32 92
43 33 4
43 34 103
43 35 41
43 36 119
43 37 112
43 38 33
43 39 23
43 40 63
43 41 49
43 42 99
44 0 98
44 1 66
44 2 24
44 3 53
44 4 12
44 5 53
44 6 69
44 7 50
44 8 52
44 9 102
44 10 51
44 11 115
44 12 72
44 13 29
44 14 89
44 15 111
44 16 98
44 17 95
44 18 45
44 19 58
44 20 50
44 21 120
44 22 6
44 23 63
44 24 96
44 25 48
44 26 113
44 27 105
44 28 68
44 29 21
44 30 55
44 31 93
44 32 6
44 33 75
44 34 102
44 35 22
44 36 78
44 37 92
44 38 112
44 39 90
44 40 76
44 41 58
44 42 1
44 43 78
45 0 46
45 1 8
45 2 77
45 3 60
45 4 21
45 5 2
45 6 12
45 7 18
45 8 119
45 9 57
45 10 54
45 11 11
45 12 1
45 13 72
45 14 83
45 15 71
45 16 87
45 17 105
45 18 44
45 19 118
45 20 98
45 21 6
45 22 69
45 23 87
45 24 33
45 25 19
45 26 42
45 27 119
45 28 42
45 29 9
45 30 87
45 31 1
45 32 47
45 33 27
45 34 7
45 35 63
45 36 73
45 37 72
45 38 47
45 39 101
45 40 35
45 41 22
45 42 111
45 43 65
45 44 11
46 0 45
46 1 103
46 2 93
46 3 40
46 4 8
46 5 23
46 6 79
46 7 62
46 8 51
46 9 37
46 10 27
46 11 53
46 12 73
46 13 36
46 14 120
46 15 74
46 16 100
46 17 49
46 18 9
46 19 104
46 20 80
46 21 21
46 22 32
46 23 47
46 24 45
46 25 113
46 26 95
46 27 71
46 28 84
46 29 114
46 30 57
46 31 52
46 32 56
46 33 19
46 34 57
46 35 22
46 36 97
46 37 60
46 38 114
46 39 92
46 40 113
46 41 28
46 42 41
46 43 25
46 44 101
46 45 58
47 0 116
47 1 78
47 2 19
47 3 46
47 4 26
47 5 13
47 6 24
47 7 19
47 8 76
47 9 116
47 10 118
47 11 18
47 12 54
47 13 85
47 14 65
47 15 82
47 16 63
47 17 71
47 18 2
47 19 30
47 20 92
47 21 10
47 22 28
47 23 34
47 24 48
47 25 40
47 26 92
47 27 80
47 28 78
47 29 14
47 30 93
47 31 92
47 32 95
47 33 96
47 34 4
47 35 42
47 36 72
47 37 50
47 38 106
47 39 6
47 40 75
47 41 105
47 42 27
47 43 1
47 44 104
47 45 109
47 46 70
48 0 110
48 1 85
48 2 21
48 3 114
48 4 73
48 5 27
48 6 93
48 7 113
48 8 101
48 9 37
48 10 2
48 11 55
48 12 4
48 13 7
48 14 16
48 15 104
48 16 8
48 17 60
48 18 52
48 19 50
48 20 38
48 21 64
48 22 114
48 23 54
48 24 79
48 25 83
48 26 81
48 27 61
48 28 6
48 29 18
48 30 97
48 31 57
48 32 111
48 33 108
48 34 92
48 35 45
48 36 59
48 37 34
48 38 100
48 39 49
48 40 89
48 41 17
48 42 68
48 43 45
48 44 85
48 45 23
48 46 62
48 47 66
49 0 30
49 1 77
49 2 99
49 3 82
49 4 57
49 5 112
49 6 81
49 7 86
49 8 60
49 9 23
49 10 95
49 11 30
49 12 30
49 13 97
49 14 36
49 15 7
49 16 48
49 17 23
49 18 100
49 19 3
49 20 94
49 21 81
49 22 70
49 23 46
49 24 80
49 25 115
49 26 71
49 27 9
49 28 114
49 29 98
49 30 91
49 31 78
49 32 9
49 33 85
49 34 11
49 35 2
49 36 18
49 37 84
49 38 29
49 39 116
49 40 82
49 41 89
49 42 57
49 43 32
49 44 105
49 45 24
49 46 54
49 47 87
49 48 45
50 0 38
50 1 75
50 2 75
50 3 112
50 4 96
50 5 117
50 6 34
50 7 44
50 8 99
50 9 55
50 10 88
50 11 96
50 12 28
50 13 58
50 14 91
50 15 7
50 16 65
50 17 13
50 18 95
50 19 78
50 20 13
50 21 109
50 22 44
50 23 97
50 24 80
50 25 82
50 26 21
50 27 56
50 28 112
50 29 48
50 30 106
50 31 11
50 32 8
50 33 9
50 34 39
50 35 103
50 36 21
50 37 64
50 38 78
50 39 64
50 40 22
50 41 24
50 42 64
50 43 1
50 44 84
50 45 38
50 46 83
50 47 48
50 48 85
50 49 42
51 0 3
51 1 27
51 2 29
51 3 51
51 4 48
51 5 108
51 6 48
51 7 1
51 8 99
51 9 83
51 10 32
51 11 32
51 12 39
51 13 112
51 14 79
51 15 86
51 16 10
51 17 103
51 18 97
51 19 29
51 20 58
51 21 88
51 22 34
51 23 51
51 24 11
51 25 108
51 26 99
51 27 101
51 28 98
51 29 107
51 30 114
51 31 105
51 32 87
51 33 112
51 34 48
51 35 117
51 36 28
51 37 33
51 38 104
51 39 68
51 40 83
51 41 35
51 42 60
51 43 8
51 44 77
51 45 38
51 46 23
51 47 72
51 48 11
51 49 59
51 50 76
52 0 53
52 1 85
52 2 34
52 3 71
52 4 26
52 5 100
52 6 39
52 7 117
52 8 58
52 9 66
52 10 98
52 11 67
52 12 24
52 13 44
52 14 69
52 15 58
52 16 5
52 17 15
52 18 57
52 19 110
52 20 106
52 21 34
52 22 113
52 23 51
52 24 72
52 25 77
52 26 74
52 27 2
52 28 20
52 29 22
52 30 63
52 31 105
52 32 90
52 33 67
52 34 21
52 35 21
52 36 7
52 37 52
52 38 65
52 39 82
52 40 50
52 41 83
52 42 102
52 43 96
52 44 21
52 45 28
52 46 72
52 47 49
52 48 43
52 49 106
52 50 23
52 51 84
53 0 101
53 1 64
53 2 23
53 3 81
53 4 46
53 5 88
53 6 7
53 7 19
53 8 22
53 9 25
53 10 96
53 11 58
53 12 116
53 13 118
53 14 120
53 15 17
53 16 85
53 17 25
53 18 14
53 19 7
53 20 56
53 21 105
53 22 119
53 23 37
53 24 114
53 25 105
53 26 117
53 27 63
53 28 91
53 29 24
53 30 15
53 31 14
53 32 70
53 33 27
53 34 44
53 35 20
53 36 65
53 37 43
53 38 74
53 39 85
53 40 77
53 41 59
53 42 18
53 43 67
53 44 117
53 45 4
53 46 97
53 47 2
53 48 17
53 49 61
53 50 101
53 51 21
53 52 3
54 0 111
54 1 52
54 2 60
54 3 99
54 4 55
54 5 16
54 6 120
54 7 18
54 8 12
54 9 109
54 10 21
54 11 45
54 12 48
54 13 56
54 14 61
54 15 85
54 16 44
54 17 113
54 18 32
54 19 77
54 20 22
54 21 40
54 22 84
54 23 77
54 24 38
54 25 7
54 26 19
54 27 49
54 28 19
54 29 79
54 30 62
54 31 113
54 32 41
54 33 59
54 34 118
54 35 25
54 36 28
54 37 104
54 38 30
54 39 43
54 40 42
54 41 5
54 42 52
54 43 67
54 44 90
54 45 8
54 46 47
54 47 112
54 48 56
54 49 30
54 50 35
54 51 41
54 52 85
54 53 107
55 0 58
55 1 90
55 2 42
55 3 60
55 4 20
55 5 73
55 6 99
55 7 62
55 8 41
55 9 54
55 10 76
55 11 62
55 12 113
55 13 56
55 14 108
55 15 26
55 16 39
55 17 8
55 18 102
55 19 93
55 20 46
55 21 52
55 22 3
55 23 28
55 24 120
55 25 73
55 26 69
55 27 29
55 28 66
55 29 99
55 30 18
55 31 14
55 32 95
55 33 104
55 34 1
55 35 11
55 36 35
55 37 88
55 38 54
55 39 39
55 40 12
55 41 8
55 42 89
55 43 94
55 44 68
55 45 107
55 46 3
55 47 51
55 48 40
55 49 87
55 50 5
55 51 118
55 52 107
55 53 20
55 54 55
56 0 54
56 1 50
56 2 41
56 3 34
56 4 118
56 5 62
56 6 5
56 7 80
56 8 107
56 9 36
56 10 34
56 11 109
56 12 109
56 13 101
56 14 72
56 15 77
56 16 100
56 17 104
56 18 58
56 19 57
56 20 48
56 21 56
56 22 65
56 23 55
56 24 92
56 25 99
56 26 52
56 27 36
56 28 19
56 29 66
56 30 85
56 31 17
56 32 56
56 33 3
56 34 108
56 35 25
56 36 103
56 37 92
56 38 81
56 39 107
56 40 76
56 41 97
56 42 107
56 43 97
56 44 3
56 45 67
56 46 92
56 47 11
56 48 68
56 49 86
56 50 60
56 51 106
56 52 27
56 53 5
56 54 25
56 55 86
57 0 63
57 1 28
57 2 105
57 3 46
57 4 25
57 5 15
57 6 84
57 7 55
57 8 33
57 9 114
57 10 9
57 11 53
57 12 52
57 13 47
57 14 8
57 15 39
57 16 26
57 17 84
57 18 16
57 19 5
57 20 54
57 21 10
57 22 49
57 23 117
57 24 81
57 25 15
57 26 108
57 27 84
57 28 91
57 29 109
57 30 33
57 31 48
57 32 104
57 33 28
57 34 23
57 35 96
57 36 55
57 37 115
57 38 41
57 39 57
57 40 115
57 41 48
57 42 76
57 43 112
57 44 44
57 45 48
57 46 17
57 47 94
57 48 100
57 49 38
57 50 102
57 51 107
57 52 3
57 53 38
57 54 33
57 55 42
57 56 110
58 0 49
58 1 47
58 2 83
58 3 8
58 4 40
58 5 80
58 6 75
58 7 91
58 8 23
58 9 111
58 10 26
58 11 58
58 12 43
58 13 44
58 14 43
58 15 77
58 16 16
58 17 22
58 18 107
58 19 42
58 20 15
58 21 34
58 22 92
58 23 111
58 24 48
58 25 29
58 26 3
58 27 39
58 28 99
58 29 63
58 30 70
58 31 59
58 32 14
58 33 57
58 34 15
58 35 80
58 36 69
58 37 87
58 38 46
58 39 102
58 40 67
58 41 107
58 42 106
58 43 10
58 44 3
58 45 106
58 46 92
58 47 41
58 48 100
58 49 13
58 50 27
58 51 116
58 52 77
58 53 31
58 54 105
58 55 12
58 56 54
58 57 87
59 0 105
59 1 66
59 2 32
59 3 83
59 4 90
59 5 120
59 6 49
59 7 46
59 8 15
59 9 55
59 10 43
59 11 12
59 12 118
59 13 49
59 14 31
59 15 13
59 16 5
59 17 15
59 18 51
59 19 39
59 20 33
59 21 114
59 22 62
59 23 55
59 24 108
59 25 77
59 26 18
59 27 13
59 28 26
59 29 1
59 30 20
59 31 107
59 32 9
59 33 58
59 34 96
59 35 70
59 36 1
59 37 38
59 38 63
59 39 115
59 40 14
59 41 72
59 42 29
59 43 86
59 44 53
59 45 27
59 46 13
59 47 83
59 48 36
59 49 58
59 50 28
59 51 38
59 52 91
59 53 9
59 54 114
59 55 103
59 56 46
59 57 62
59 58 50
